
Gurobi 11.0.1 (win64) logging started Wed May 15 14:44:16 2024

Set parameter LogFile to value "output/solver_log0.txt"
Gurobi Optimizer version 11.0.1 build v11.0.1rc0 (win64 - Windows 11.0 (22631.2))

CPU model: 11th Gen Intel(R) Core(TM) i7-1165G7 @ 2.80GHz, instruction set [SSE2|AVX|AVX2|AVX512]
Thread count: 4 physical cores, 8 logical processors, using up to 8 threads

Optimize a model with 2933 rows, 797 columns and 56379 nonzeros
Model fingerprint: 0xc85eaa81
Variable types: 248 continuous, 549 integer (549 binary)
Coefficient statistics:
  Matrix range     [4e-01, 1e+05]
  Objective range  [1e+00, 1e+02]
  Bounds range     [1e+00, 1e+00]
  RHS range        [1e-02, 1e+05]

User MIP start produced solution with objective 39436 (0.01s)
User MIP start produced solution with objective 39436 (0.01s)
Loaded user MIP start with objective 39436

Presolve removed 329 rows and 244 columns
Presolve time: 0.05s
Presolved: 2604 rows, 553 columns, 52042 nonzeros
Variable types: 235 continuous, 318 integer (314 binary)

Root relaxation: objective 5.260981e+04, 836 iterations, 0.04 seconds (0.08 work units)

    Nodes    |    Current Node    |     Objective Bounds      |     Work
 Expl Unexpl |  Obj  Depth IntInf | Incumbent    BestBd   Gap | It/Node Time

     0     0 52609.8105    0   44 39435.9947 52609.8105  33.4%     -    0s
     0     0 51701.7629    0  107 39435.9947 51701.7629  31.1%     -    0s
     0     0 51578.1665    0  107 39435.9947 51578.1665  30.8%     -    0s
     0     0 51578.1665    0   92 39435.9947 51578.1665  30.8%     -    0s
     0     0 49912.4692    0   95 39435.9947 49912.4692  26.6%     -    0s
     0     0 49912.4692    0   95 39435.9947 49912.4692  26.6%     -    0s
     0     0 49912.4692    0   42 39435.9947 49912.4692  26.6%     -    0s
     0     0 49912.4692    0   97 39435.9947 49912.4692  26.6%     -    0s
     0     0 49912.4692    0  104 39435.9947 49912.4692  26.6%     -    0s
     0     0 47177.9991    0  105 39435.9947 47177.9991  19.6%     -    1s
     0     0 47177.9991    0  115 39435.9947 47177.9991  19.6%     -    1s
     0     0 47177.9991    0  106 39435.9947 47177.9991  19.6%     -    1s
     0     0 47177.9991    0  118 39435.9947 47177.9991  19.6%     -    1s
     0     0 47177.9991    0  125 39435.9947 47177.9991  19.6%     -    1s
     0     0 47177.9991    0  115 39435.9947 47177.9991  19.6%     -    1s
     0     0 47177.9991    0  113 39435.9947 47177.9991  19.6%     -    1s
     0     0 47177.9991    0  105 39435.9947 47177.9991  19.6%     -    1s
     0     0 47177.9991    0  104 39435.9947 47177.9991  19.6%     -    1s
     0     0 47177.9991    0  102 39435.9947 47177.9991  19.6%     -    1s
     0     0 46825.4473    0  119 39435.9947 46825.4473  18.7%     -    1s
     0     0 46825.4473    0  117 39435.9947 46825.4473  18.7%     -    1s
     0     2 46825.4473    0  117 39435.9947 46825.4473  18.7%     -    1s
H  269   194                    39471.325008 42531.8118  7.75%   162    3s
  1268   801 39627.1990   30   57 39471.3250 41659.5005  5.54%  69.7    5s
  1724   844 39626.7132   34   58 39471.3250 40270.9938  2.03%  94.3   10s
* 2187   771             126    39598.251929 39627.7499  0.07%  80.8   10s
* 2322   737             101    39610.951216 39627.7499  0.04%  76.8   11s
H 3174   730                    39611.279524 39627.7499  0.04%  66.1   12s
H 4032   994                    39611.320818 39627.7498  0.04%  59.3   13s
H 4242  1121                    39611.427322 39627.7498  0.04%  56.3   14s
  5126  1641 39614.0779   73   20 39611.4273 39627.7498  0.04%  54.3   15s
H 6991  2358                    39611.434742 39627.7498  0.04%  49.1   18s
  8207  2870 39618.0308   50   51 39611.4347 39627.7498  0.04%  47.5   20s
*10258  3813             106    39611.759122 39627.7498  0.04%  45.4   22s
*10533  3795             110    39611.906963 39627.7498  0.04%  45.1   22s
*10749  4143             102    39612.013655 39627.7498  0.04%  45.0   23s
*10756  4140             100    39612.029681 39627.7498  0.04%  45.0   23s
 12040  4616 39618.1475   56   35 39612.0297 39627.7498  0.04%  44.1   25s
*20521  5867             105    39612.138603 39627.7498  0.04%  31.2   29s
*20881  5584              94    39612.772744 39627.7498  0.04%  31.4   29s
 20934  5791 39626.8639   36   59 39612.7727 39627.7498  0.04%  31.4   30s
 24504  7138 39622.3778   40   48 39612.7727 39627.7498  0.04%  32.7   35s

Cutting planes:
  Gomory: 1
  Implied bound: 1
  MIR: 23
  RLT: 1

Explored 31779 nodes (896452 simplex iterations) in 60.02 seconds (128.45 work units)
Thread count was 8 (of 8 available processors)

Solution count 10: 39612.8 39612.1 39612 ... 39611.3

Time limit reached
Best objective 3.961277274409e+04, best bound 3.962774978727e+04, gap 0.0378%
